
  22   10
  10   10   10   10   10   10   10   10   10   10

   0   0   0   0   0   0   0   0   0   0   0  13 2 3 4 5 6 7 8 9 10 18 19 20 21 
   5   0   0  10   0   0   0   0   0   0   0   4 17 16 15 11 
   6   0   0  10   0   0   0   0   0   0   0   4 16 15 14 11 
   1   0   0   0   0   0   0   0   0   0  10   3 14 12 11 
   6   0   0   0   0   0   0   0   0  10   0   3 13 12 11 
   9   0   0   0   0   0   0   0   0  10   0   2 13 11 
   3   0   0   0   0   0   0   0   0   0  10   2 12 11 
   4   0   0   0   0  10   0   0   0   0   0   1 13 
   2   0   0   0   0   0   0   0   0   0  10   1 12 
   3   0   0   0   0   0   0   0   0  10   0   1 11 
   1   0   0   0   0   0   0   0   0   0  10   1 22
   4   0   0   0   0   0   0  10   0   0   0   1 22
   9   0   0   0   0   0   0  10   0   0   0   1 22
   3   0   0   0   0  10   0   0   0   0   0   1 22
   3   0   0   0   0  10   0   0   0   0   0   1 22
   8  10   0   0   0   0   0   0   0   0   0   1 22
   3   0   0   0   0   0   0   0   0   0  10   1 22
   6  10   0   0   0   0   0   0   0   0   0   1 22
   6   0   0   0   0   0   0   0   0   0  10   1 22
   8  10   0   0   0   0   0   0   0   0   0   1 22
   3   0   0   0  10   0   0   0   0   0   0   1 22
   0   0   0   0   0   0   0   0   0   0   0   0 
